c generated by sgen
p cnf 61 132
-2 -3 -4 0
-1 -3 -4 0
-1 -2 -4 0
-1 -2 -3 0
-6 -7 -8 0
-5 -7 -8 0
-5 -6 -8 0
-5 -6 -7 0
-10 -11 -12 0
-9 -11 -12 0
-9 -10 -12 0
-9 -10 -11 0
-14 -15 -16 0
-13 -15 -16 0
-13 -14 -16 0
-13 -14 -15 0
-18 -19 -20 0
-17 -19 -20 0
-17 -18 -20 0
-17 -18 -19 0
-22 -23 -24 0
-21 -23 -24 0
-21 -22 -24 0
-21 -22 -23 0
-26 -27 -28 0
-25 -27 -28 0
-25 -26 -28 0
-25 -26 -27 0
-30 -31 -32 0
-29 -31 -32 0
-29 -30 -32 0
-29 -30 -31 0
-34 -35 -36 0
-33 -35 -36 0
-33 -34 -36 0
-33 -34 -35 0
-38 -39 -40 0
-37 -39 -40 0
-37 -38 -40 0
-37 -38 -39 0
-42 -43 -44 0
-41 -43 -44 0
-41 -42 -44 0
-41 -42 -43 0
-46 -47 -48 0
-45 -47 -48 0
-45 -46 -48 0
-45 -46 -47 0
-50 -51 -52 0
-49 -51 -52 0
-49 -50 -52 0
-49 -50 -51 0
-54 -55 -56 0
-53 -55 -56 0
-53 -54 -56 0
-53 -54 -55 0
-57 -58 -59 0
-57 -58 -60 0
-57 -58 -61 0
-57 -59 -60 0
-57 -59 -61 0
-57 -60 -61 0
-58 -59 -60 0
-58 -59 -61 0
-58 -60 -61 0
-59 -60 -61 0
6 37 33 0
50 37 33 0
50 6 33 0
50 6 37 0
7 22 55 0
4 22 55 0
4 7 55 0
4 7 22 0
35 54 46 0
18 54 46 0
18 35 46 0
18 35 54 0
52 14 58 0
3 14 58 0
3 52 58 0
3 52 14 0
28 36 1 0
29 36 1 0
29 28 1 0
29 28 36 0
49 19 43 0
30 19 43 0
30 49 43 0
30 49 19 0
48 9 60 0
31 9 60 0
31 48 60 0
31 48 9 0
45 8 44 0
25 8 44 0
25 45 44 0
25 45 8 0
38 53 59 0
27 53 59 0
27 38 59 0
27 38 53 0
26 51 10 0
21 51 10 0
21 26 10 0
21 26 51 0
42 24 57 0
34 24 57 0
34 42 57 0
34 42 24 0
13 41 12 0
56 41 12 0
56 13 12 0
56 13 41 0
39 17 2 0
11 17 2 0
11 39 2 0
11 39 17 0
15 5 20 0
61 5 20 0
61 15 20 0
61 15 5 0
47 23 32 0
47 23 40 0
47 23 16 0
47 32 40 0
47 32 16 0
47 40 16 0
23 32 40 0
23 32 16 0
23 40 16 0
32 40 16 0
